NAME: concorde12
TYPE: TSP
COMMENT: Generated by CCutil_writetsplib
COMMENT: Write called for by Concorde GUI
DIMENSION: 12
EDGE_WEIGHT_TYPE: EUC_2D
NODE_COORD_SECTION
1 25.816993 74.261603
2 32.352941 77.426160
3 34.477124 73.839662
4 35.702614 59.282700
5 29.084967 52.109705
6 21.650327 58.016878
7 22.467320 64.556962
8 28.676471 76.160338
9 31.862745 55.274262
10 25.571895 53.164557
11 24.183007 69.198312
12 29.820261 65.822785
